(declare-const x0 Bool)
(declare-const x1 Bool)
(declare-const x2 Bool)
(declare-const x3 Bool)
(declare-const x4 Bool)
(declare-const x5 Bool)
(declare-const x6 Bool)
(declare-const x7 Bool)
(declare-const x8 Bool)
(declare-const x9 Bool)
(declare-const x10 Bool)
(declare-const x11 Bool)
(declare-const x12 Bool)
(declare-const x13 Bool)
(declare-const x14 Bool)
(declare-const x15 Bool)
(declare-const x16 Bool)
(declare-const x17 Bool)
(declare-const x18 Bool)
(declare-const x19 Bool)
(declare-const x20 Bool)
(declare-const x21 Bool)
(declare-const x22 Bool)
(declare-const x23 Bool)
(declare-const x24 Bool)
(declare-const x25 Bool)
(declare-const x26 Bool)
(declare-const x27 Bool)
(declare-const x28 Bool)
(declare-const x29 Bool)
(declare-const x30 Bool)
(declare-const x31 Bool)
(declare-const x32 Bool)
(declare-const x33 Bool)
(declare-const x34 Bool)
(declare-const x35 Bool)
(declare-const x36 Bool)
(declare-const x37 Bool)
(declare-const x38 Bool)
(declare-const x39 Bool)
(declare-const x40 Bool)
(declare-const x41 Bool)
(declare-const x42 Bool)
(declare-const x43 Bool)
(declare-const x44 Bool)
(declare-const x45 Bool)
(declare-const x46 Bool)
(declare-const x47 Bool)
(declare-const x48 Bool)
(declare-const x49 Bool)
(declare-const x50 Bool)
(declare-const x51 Bool)
(declare-const x52 Bool)
(declare-const x53 Bool)
(declare-const x54 Bool)
(assert x50)
(assert (or (or false false) (or (or true (= x5 true)) (= x53 (= true x48)))))
(assert (or true (and x49 (or false x1))))
(assert (or (= false false) (= false true)))
(assert (= (or (= false x18) x8) (and true true)))
(assert (or (= (or x14 false) (or x2 false)) (and true x7)))
(assert (and x30 x18))
(assert x18)
(assert (or (= x11 x43) (or (or x43 x32) (= x17 x1))))
(assert (= (and (or (= (and x20 x43) true) (and x29 true)) (= (and x53 true) x29)) (and false x22)))
(check-sat)
